certificates/rado_a10_c278_N28.cnf
c Rad2 upper bound instance: x1 + 10*x2 - x3 = 278, interval [1,28]
p cnf 28 112
1 3 28 0
-1 -3 -28 0
2 4 28 0
-2 -4 -28 0
3 5 28 0
-3 -5 -28 0
4 6 28 0
-4 -6 -28 0
5 7 28 0
-5 -7 -28 0
6 8 28 0
-6 -8 -28 0
7 9 28 0
-7 -9 -28 0
8 10 28 0
-8 -10 -28 0
1 9 27 0
-1 -9 -27 0
9 11 28 0
-9 -11 -28 0
2 10 27 0
-2 -10 -27 0
10 12 28 0
-10 -12 -28 0
3 11 27 0
-3 -11 -27 0
11 13 28 0
-11 -13 -28 0
4 12 27 0
-4 -12 -27 0
12 14 28 0
-12 -14 -28 0
5 13 27 0
-5 -13 -27 0
13 15 28 0
-13 -15 -28 0
6 14 27 0
-6 -14 -27 0
14 16 28 0
-14 -16 -28 0
7 15 27 0
-7 -15 -27 0
15 17 28 0
-15 -17 -28 0
8 16 27 0
-8 -16 -27 0
16 18 28 0
-16 -18 -28 0
9 17 27 0
-9 -17 -27 0
17 19 28 0
-17 -19 -28 0
10 18 27 0
-10 -18 -27 0
18 20 28 0
-18 -20 -28 0
1 19 26 0
-1 -19 -26 0
11 19 27 0
-11 -19 -27 0
19 21 28 0
-19 -21 -28 0
2 20 26 0
-2 -20 -26 0
12 20 27 0
-12 -20 -27 0
20 22 28 0
-20 -22 -28 0
3 21 26 0
-3 -21 -26 0
13 21 27 0
-13 -21 -27 0
21 23 28 0
-21 -23 -28 0
4 22 26 0
-4 -22 -26 0
14 22 27 0
-14 -22 -27 0
22 24 28 0
-22 -24 -28 0
5 23 26 0
-5 -23 -26 0
15 23 27 0
-15 -23 -27 0
23 25 28 0
-23 -25 -28 0
6 24 26 0
-6 -24 -26 0
16 24 27 0
-16 -24 -27 0
24 26 28 0
-24 -26 -28 0
7 25 26 0
-7 -25 -26 0
17 25 27 0
-17 -25 -27 0
25 27 28 0
-25 -27 -28 0
8 26 0
-8 -26 0
18 26 27 0
-18 -26 -27 0
26 28 0
-26 -28 0
9 26 27 0
-9 -26 -27 0
19 27 0
-19 -27 0
10 26 28 0
-10 -26 -28 0
20 27 28 0
-20 -27 -28 0
