certificates/rado_a10_c278_N28.drat
-28 0
26 0
-8 0
6 0
10 0
-24 0
22 0
-4 0
2 0
-20 0
-27 0
18 0
12 0
0
